1 -1 2 0
1 -1 3 0
1 4 5 0
1 -6 7 0
1 -6 8 0
1 -2 -4 0
1 2 -9 0
1 3 -10 0
1 -3 -11 0
1 3 4 0
1 3 -12 0
1 -13 -14 0
1 13 -5 0
1 -5 9 0
1 5 1 0
1 12 15 0
1 -16 15 0
1 -17 18 0
1 -17 19 0
1 17 20 0
1 -17 -21 0
1 17 -22 0
1 -20 -18 0
1 20 -17 0
1 -20 6 0
1 -20 -23 0
1 18 16 0
1 18 6 0
1 15 -24 0
1 -15 25 0
1 15 -26 0
1 15 -23 0
1 7 17 0
1 -27 -28 0
1 27 -19 0
1 29 -19 0
1 -30 19 0
1 -30 20 0
1 -22 -31 0
1 -19 30 0
1 19 -31 0
1 19 -29 0
1 -19 27 0
1 -21 30 0
1 21 32 0
1 -21 33 0
1 -28 -34 0
1 -28 29 0
1 28 -23 0
1 -28 -21 0
1 -35 -36 0
1 35 -37 0
1 -35 1 0
1 -36 38 0
1 -8 -39 0
1 38 39 0
1 39 38 0
1 -39 40 0
1 39 41 0
1 -42 -43 0
1 -42 -44 0
1 42 35 0
1 37 -36 0
1 -41 -45 0
1 -41 46 0
1 -41 -12 0
1 41 -5 0
1 40 38 0
1 40 23 0
1 -40 -47 0
1 48 -49 0
1 48 -17 0
1 -48 43 0
1 -46 49 0
1 -46 50 0
1 -46 -8 0
1 49 51 0
1 -49 -11 0
1 -49 -40 0
1 49 41 0
1 -49 -52 0
1 45 -53 0
1 45 54 0
1 45 -52 0
1 54 -44 0
1 26 -55 0
1 11 56 0
1 -11 -13 0
1 -11 -15 0
1 57 10 0
1 -57 7 0
1 57 46 0
1 57 58 0
1 -57 -55 0
1 24 46 0
1 -24 -56 0
1 24 -14 0
1 24 15 0
1 -24 55 0
1 -56 59 0
1 56 40 0
1 55 57 0
1 58 -60 0
1 -58 59 0
1 -58 -40 0
1 -58 61 0
1 -62 63 0
1 34 -28 0
1 -34 14 0
1 34 -64 0
1 -33 51 0
1 33 15 0
1 -65 66 0
1 -65 14 0
1 -67 -56 0
1 67 14 0
1 67 -64 0
1 67 -55 0
1 -64 10 0
1 64 -24 0
1 64 68 0
1 64 -57 0
1 -64 -69 0
1 64 -70 0
1 10 24 0
1 10 65 0
1 -10 -34 0
1 -10 3 0
1 10 71 0
1 -10 -33 0
1 14 72 0
1 14 -63 0
1 -14 -67 0
1 14 33 0
1 -73 65 0
1 -73 5 0
1 73 -72 0
1 -73 -33 0
1 31 -74 0
1 71 75 0
1 -71 19 0
1 -71 25 0
1 71 -63 0
1 68 10 0
1 -70 76 0
1 70 -68 0
1 70 -25 0
1 -70 77 0
1 70 -72 0
1 -74 -68 0
1 -74 65 0
1 74 78 0
1 -74 -79 0
1 66 80 0
1 -66 68 0
1 66 -74 0
1 -25 81 0
1 25 -15 0
1 25 -82 0
1 25 83 0
1 -25 -71 0
1 -75 31 0
1 -75 70 0
1 -75 67 0
1 84 -85 0
1 -84 81 0
1 84 -77 0
1 79 -66 0
1 -80 32 0
1 -78 -86 0
1 -76 -19 0
1 -76 84 0
1 76 70 0
1 32 -85 0
1 -32 84 0
1 32 -82 0
1 -85 -87 0
1 85 88 0
1 -85 -84 0
1 85 68 0
1 85 -89 0
1 90 91 0
1 90 -92 0
1 -90 93 0
1 92 -90 0
1 -94 95 0
1 -94 96 0
1 94 -97 0
1 -94 98 0
1 96 -91 0
1 -96 -97 0
1 -93 99 0
1 93 -96 0
1 -99 -96 0
1 -98 -91 0
1 91 -100 0
1 -91 -98 0
1 91 94 0
1 101 93 0
1 -101 102 0
1 101 -103 0
1 104 -50 0
1 -104 95 0
1 -104 -93 0
1 104 101 0
1 47 -105 0
1 -47 106 0
1 47 103 0
1 -47 -107 0
1 -43 -105 0
1 43 48 0
1 -43 -37 0
1 43 -107 0
1 -103 44 0
1 -103 -108 0
1 -97 103 0
1 -97 -101 0
1 -102 -43 0
1 -102 -104 0
1 -102 96 0
1 -102 -101 0
1 -102 94 0
1 95 -109 0
1 44 42 0
1 44 -97 0
1 -110 -42 0
1 -111 -112 0
1 -53 -113 0
1 -53 114 0
1 53 97 0
1 53 106 0
1 53 -111 0
1 105 115 0
1 105 116 0
1 -105 117 0
1 -105 -47 0
1 116 51 0
1 -116 118 0
1 116 -119 0
1 -116 -61 0
1 -107 -53 0
1 -107 111 0
1 107 47 0
1 107 120 0
1 106 53 0
1 106 -47 0
1 -117 113 0
1 117 -114 0
1 117 -112 0
1 -117 -121 0
1 -51 -113 0
1 51 117 0
1 118 -65 0
1 -118 112 0
1 118 -62 0
1 61 -67 0
1 -114 -51 0
1 114 53 0
1 -114 122 0
1 -114 -123 0
1 114 -117 0
1 -114 72 0
1 121 123 0
1 -121 -59 0
1 113 53 0
1 113 -118 0
1 -113 -117 0
1 -113 -120 0
1 -112 124 0
1 -112 111 0
1 112 -120 0
1 59 -125 0
1 63 114 0
1 63 121 0
1 -63 126 0
1 -63 125 0
1 63 73 0
1 -123 60 0
1 123 -14 0
1 -72 14 0
1 72 121 0
1 -72 126 0
1 72 -70 0
1 127 -128 0
1 127 -81 0
1 -127 -86 0
1 127 -72 0
1 -127 63 0
1 -127 61 0
1 -125 -49 0
1 -129 130 0
1 -129 -131 0
1 -129 -132 0
1 129 -133 0
1 -126 -130 0
1 -126 -59 0
1 -126 -134 0
1 81 75 0
1 81 60 0
1 -81 -14 0
1 -128 80 0
1 -128 -135 0
1 128 -136 0
1 -128 137 0
1 86 -135 0
1 86 -138 0
1 135 139 0
1 135 -89 0
1 -135 -140 0
1 -140 135 0
1 140 69 0
1 -140 -72 0
1 -60 -130 0
1 -60 -81 0
1 -60 141 0
1 60 -69 0
1 -87 -135 0
1 87 138 0
1 87 -82 0
1 87 -25 0
1 87 -32 0
1 82 -66 0
1 82 136 0
1 -82 -142 0
1 -82 32 0
1 -82 -140 0
1 -143 144 0
1 -89 -135 0
1 -89 -83 0
1 136 -145 0
1 136 -146 0
1 136 -86 0
1 145 -143 0
1 -138 87 0
1 138 -147 0
1 138 139 0
1 148 139 0
1 148 -138 0
1 148 -82 0
1 148 86 0
1 -148 73 0
1 149 150 0
1 149 76 0
1 149 -151 0
1 -149 77 0
1 -151 -152 0
1 151 -139 0
1 -151 -32 0
1 -153 150 0
1 153 -154 0
1 146 -150 0
1 146 88 0
1 -152 155 0
1 -152 89 0
1 -83 -25 0
1 83 -153 0
1 150 -149 0
1 -150 -143 0
1 150 -75 0
1 -150 151 0
1 150 -83 0
1 150 -156 0
1 -157 155 0
1 157 -158 0
1 -157 159 0
1 -155 158 0
1 160 -159 0
1 -160 161 0
1 162 -152 0
1 -159 162 0
1 -159 -163 0
1 -159 -146 0
1 159 -77 0
1 -163 -159 0
1 -163 -146 0
1 154 -88 0
1 -154 153 0
1 -88 -160 0
1 88 153 0
1 -109 164 0
1 -165 -95 0
1 -165 109 0
1 165 107 0
1 -166 100 0
1 166 167 0
1 168 -165 0
1 -168 124 0
1 168 166 0
1 -164 124 0
1 -164 169 0
1 170 -113 0
1 -170 -171 0
1 170 116 0
1 170 107 0
1 -120 113 0
1 120 108 0
1 -124 164 0
1 -124 171 0
1 124 -172 0
1 124 167 0
1 124 173 0
1 174 -168 0
1 -174 -72 0
1 174 167 0
1 174 -108 0
1 -108 -131 0
1 108 -124 0
1 108 170 0
1 108 -175 0
1 -108 -120 0
1 167 -120 0
1 -167 169 0
1 -171 -124 0
1 171 -176 0
1 -171 167 0
1 -171 175 0
1 -171 -120 0
1 171 -169 0
1 132 172 0
1 133 113 0
1 -131 128 0
1 -131 -177 0
1 -131 178 0
1 134 119 0
1 -134 178 0
1 -134 -126 0
1 -115 -179 0
1 -119 179 0
1 119 -144 0
1 119 130 0
1 -119 -124 0
1 119 116 0
1 -119 -134 0
1 119 -133 0
1 -173 179 0
1 -173 -132 0
1 173 175 0
1 -173 174 0
1 -173 107 0
1 172 -180 0
1 172 181 0
1 172 134 0
1 172 -173 0
1 -130 -122 0
1 -130 142 0
1 130 -178 0
1 -130 -125 0
1 -142 115 0
1 -142 122 0
1 -142 60 0
1 -142 178 0
1 -142 137 0
1 -144 182 0
1 144 -183 0
1 144 60 0
1 144 -119 0
1 184 185 0
1 -184 186 0
1 184 187 0
1 184 -137 0
1 122 -142 0
1 -122 134 0
1 178 188 0
1 178 -122 0
1 178 142 0
1 -178 121 0
1 183 144 0
1 183 -189 0
1 183 190 0
1 -183 -191 0
1 183 186 0
1 186 144 0
1 -186 -142 0
1 188 -60 0
1 188 135 0
1 -188 -192 0
1 139 -135 0
1 -139 -187 0
1 -193 -194 0
1 -193 -147 0
1 -193 138 0
1 -193 195 0
1 -147 -141 0
1 -147 146 0
1 -147 138 0
1 147 -195 0
1 -196 -144 0
1 196 187 0
1 -196 -197 0
1 196 193 0
1 187 -188 0
1 -187 197 0
1 -194 188 0
1 194 -129 0
1 194 -198 0
1 194 193 0
1 192 147 0
1 -192 199 0
1 156 -187 0
1 156 195 0
1 -200 187 0
1 -161 150 0
1 -161 -199 0
1 -197 -201 0
1 -197 -187 0
1 202 197 0
1 -202 147 0
1 -195 200 0
1 -195 -202 0
1 141 -200 0
1 141 -193 0
1 -201 137 0
1 -201 -161 0
1 180 175 0
1 180 173 0
1 -175 -172 0
1 175 -142 0
1 182 -172 0
1 182 203 0
1 -182 -204 0
1 185 -176 0
1 -185 -172 0
1 185 -173 0
1 -205 180 0
1 -206 -191 0
1 -206 -205 0
1 207 -182 0
1 -207 -208 0
1 207 185 0
1 -179 -115 0
1 -179 -183 0
1 -179 -176 0
1 -179 186 0
1 179 204 0
1 -191 179 0
1 191 119 0
1 191 -203 0
1 191 -204 0
1 -209 183 0
1 -190 205 0
1 204 -210 0
1 210 209 0
1 -210 -177 0
1 210 -189 0
1 -210 -199 0
1 203 209 0
1 176 209 0
1 -189 -211 0
1 -189 204 0
1 -199 210 0
1 -199 -181 0
1 -199 204 0
1 -211 -189 0
1 211 190 0
1 211 -199 0
